# ORCA input file - Optimization of ethanol
# Simple input format

! B3LYP def2-SVP Opt

%pal nprocs 4 end

%maxcore 2000

* xyz 0 1
C   -0.748340    0.287560   -0.000000
C    0.748340   -0.287560    0.000000
O    1.630890    0.858180    0.000000
H   -0.887900    0.925720    0.883040
H   -0.887900    0.925720   -0.883040
H   -1.458460   -0.546230    0.000000
H    0.888090   -0.925790    0.883030
H    0.888090   -0.925790   -0.883030
H    2.540510    0.559470    0.000000
*
