# ORCA input file - Frequency calculation of ethanol
# Using tight convergence and CPCM solvation

! B3LYP def2-TZVP Freq TightSCF

%pal nprocs 8 end

%maxcore 4000

%scf
  MaxIter 500
end

%cpcm
  smd true
  SMDsolvent "water"
end

* xyz 0 1
C   -0.748340    0.287560   -0.000000
C    0.748340   -0.287560    0.000000
O    1.630890    0.858180    0.000000
H   -0.887900    0.925720    0.883040
H   -0.887900    0.925720   -0.883040
H   -1.458460   -0.546230    0.000000
H    0.888090   -0.925790    0.883030
H    0.888090   -0.925790   -0.883030
H    2.540510    0.559470    0.000000
*
